
  22   10
  10   10   10   10   10   10   10   10   10   10

   0   0   0   0   0   0   0   0   0   0   0   3 2 7 9 
   6   0  10   0   0   0   0   0   0   0   0   1 3 
   6   0   0   0   0   0   0   0  10   0   0   1 4 
   4   0  10   0   0   0   0   0   0   0   0   1 5 
   1   0   0   0   0   0   0   0  10   0   0   1 6 
   9   0   0   0   0   0   0  10   0   0   0   2 12 8 
   9   0   0   0   0   0  10   0   0   0   0   2 12 8 
   8   0   0   0   0  10   0   0   0   0   0   2 13 10 
  10   0   0   0   0   0  10   0   0   0   0   2 13 11 
   1   0   0   0   0   0   0   0  10   0   0   2 18 11 
   5   0   0   0   0   0  10   0   0   0   0   1 14 
   8   0   0   0   0   0  10   0   0   0   0   1 13 
   4   0   0   0   0  10   0   0   0   0   0   3 21 18 16 
   7   0   0   0   0   0   0   0   0   0  10   1 15 
   8   0   0   0   0   0   0   0  10   0   0   2 21 16 
   9   0   0   0   0   0   0   0  10   0   0   1 17 
   1   0   0   0   0  10   0   0   0   0   0   1 19 
   7   0   0   0   0   0   0   0   0   0  10   1 19 
   7   0   0   0  10   0   0   0   0   0   0   1 20 
   1   0   0   0   0  10   0   0   0   0   0   1 22
  10   0   0   0   0   0   0  10   0   0   0   1 22
   0   0   0   0   0   0   0   0   0   0   0   0 
